language ESSENCE' 1.0
$ Minion SolverNodes: 2
$ Minion SolverTotalTime: 0.000508
$ Minion SolverTimeOut: 0
$ Savile Row TotalTime: 0.284
letting M be [[44, 29, 31, 5, 4], 
[44, 31, 5, 4, -1], 
[31, 5, 4, -1, -1], 
[5, 4, -1, -1, -1], 
[4, -1, -1, -1, -1]]
